v1 = 5;
v2 = 5;
vertexWeights = [-45, -45, -45, -45, -45, -45, -90, -10.51189802081432, -90, -90, -90, -45, -90, -90, -90, -90, -90, -45, -90, -90, -38.108398024582456, -90, -90, -45, -90, -29.652150006365474, -90, -90, -90, -45, -90, -90, -9.86154146165801, -90, -90];
edgeWeights = [| 0, 0, -7.5, -7.5, -7.5, 0, 0, 0, -7.5, -7.5, -7.5, 0, 0, 0, -7.5, -7.5, -7.5, 0, 0, 0, -7.5, -7.5, -7.5, 0, 0, 0, -7.5, -7.5, -7.5, 0, 0, 0, -7.5, -7.5, -7.5
| 0, 0, -7.5, -7.5, 0, 0, 0, 0, -7.5, -7.5, 0, 0, 0, 0, -7.5, -7.5, 0, 0, 0, 0, -7.5, -7.5, 0, 0, 0, 0, -7.5, -7.5, 0, 0, 0, 0, -7.5, -7.5, 0
| -7.5, -7.5, 0, 0, 0, 0, -7.5, -7.5, 0, 0, 0, 0, -7.5, -7.5, 0, 0, 0, 0, -7.5, -7.5, 0, 0, 0, 0, -7.5, -7.5, 0, 0, 0, 0, -7.5, -7.5, 0, 0, 0
| -7.5, -7.5, 0, 0, 0, 0, -7.5, -7.5, 0, 0, 0, 0, -7.5, -7.5, 0, 0, 0, 0, -7.5, -7.5, 0, 0, 0, 0, -7.5, -7.5, 0, 0, 0, 0, -7.5, -7.5, 0, 0, 0
| -7.5, 0, 0, 0, 0, 0, -7.5, 0, 0, 0, 0, 0, -7.5, 0, 0, 0, 0, 0, -7.5, 0, 0, 0, 0, 0, -7.5, 0, 0, 0, 0, 0, -7.5, 0, 0, 0, 0
| 0, 0, 0, 0, 0, 0, 0, 0, 0, 0, 0, 0, 0, 0, 0, 0, 0, 0, 0, 0, 0, 0, 0, 0, 0, 0, 0, 0, 0, -15.0, -15.0, -15.0, -15.0, -15.0, -15.0
| 0, -0.0, -7.5, -7.5, -7.5, 0, 0, 0, 0, 0, 0, -0.0, 0, 0, -7.5, -7.5, -7.5, -0.0, 0, 0, -7.5, -7.5, -7.5, -0.0, 0, 0, -7.5, -7.5, -7.5, -15.0, 0, -0.0, -7.5, -7.5, -7.5
| -0.0, 0, -7.5, -7.5, -0.0, 0, 0, 0, 0, 0, 0, -0.0, 0, 0, -7.5, -7.5, 0, -0.0, 0, 0, -7.5, -7.5, 0, -0.0, 0, 0, -7.5, -7.5, 0, -15.0, -0.0, 0, -7.5, -7.5, -15.0
| -7.5, -7.5, 0, -0.0, -0.0, 0, 0, 0, 0, 0, 0, -0.0, -7.5, -7.5, 0, 0, 0, -0.0, -7.5, -7.5, 0, 0, 0, -0.0, -7.5, -7.5, 0, 0, 0, -15.0, -7.5, -7.5, 0, -0.0, -15.0
| -7.5, -7.5, -0.0, 0, -0.0, 0, 0, 0, 0, 0, 0, -0.0, -7.5, -7.5, 0, 0, 0, -0.0, -7.5, -7.5, 0, 0, 0, -0.0, -7.5, -7.5, 0, 0, 0, -15.0, -7.5, -7.5, -0.0, 0, -15.0
| -7.5, -0.0, -0.0, -0.0, 0, 0, 0, 0, 0, 0, 0, -0.0, -7.5, 0, 0, 0, 0, -0.0, -7.5, 0, 0, 0, 0, -0.0, -7.5, 0, 0, 0, 0, -15.0, -7.5, -0.0, -0.0, -0.0, 0
| 0, 0, 0, 0, 0, 0, 0, 0, 0, 0, 0, 0, 0, 0, 0, 0, 0, 0, 0, 0, 0, 0, 0, 0, 0, 0, 0, 0, 0, 0, 0, 0, 0, 0, 0
| 0, -0.0, -7.5, -7.5, -7.5, -0.0, 0, 0, -7.5, -7.5, -7.5, 0, 0, 0, 0, 0, 0, -0.0, 0, 0, -7.5, -7.5, -7.5, -0.0, 0, 0, -7.5, -7.5, -7.5, -0.0, 0, 0, -7.5, -7.5, -7.5
| -0.0, 0, -7.5, -7.5, -0.0, -0.0, 0, 0, -7.5, -7.5, 0, 0, 0, 0, 0, 0, 0, -0.0, 0, 0, -7.5, -7.5, 0, -0.0, 0, 0, -7.5, -7.5, 0, -0.0, 0, 0, -7.5, -7.5, 0
| -7.5, -7.5, 0, -0.0, -0.0, -0.0, -7.5, -7.5, 0, 0, 0, 0, 0, 0, 0, 0, 0, -0.0, -7.5, -7.5, 0, 0, 0, -0.0, -7.5, -7.5, 0, 0, 0, -0.0, -7.5, -7.5, 0, 0, 0
| -7.5, -7.5, -0.0, 0, -0.0, -0.0, -7.5, -7.5, 0, 0, 0, 0, 0, 0, 0, 0, 0, -0.0, -7.5, -7.5, 0, 0, 0, -0.0, -7.5, -7.5, 0, 0, 0, -0.0, -7.5, -7.5, 0, 0, 0
| -7.5, -0.0, -0.0, -0.0, 0, -0.0, -7.5, 0, 0, 0, 0, 0, 0, 0, 0, 0, 0, -0.0, -7.5, 0, 0, 0, 0, -0.0, -7.5, 0, 0, 0, 0, -0.0, -7.5, 0, 0, 0, 0
| 0, 0, 0, 0, 0, 0, 0, 0, 0, 0, 0, 0, 0, 0, 0, 0, 0, 0, 0, 0, 0, 0, 0, -15.0, -15.0, -15.0, -15.0, -15.0, -15.0, 0, 0, 0, 0, 0, 0
| 0, -0.0, -7.5, -7.5, -7.5, -0.0, 0, 0, -7.5, -7.5, -7.5, -0.0, 0, 0, -7.5, -7.5, -7.5, 0, 0, 0, 0, 0, 0, -15.0, 0, -0.0, -7.5, -7.5, -7.5, -0.0, 0, 0, -7.5, -7.5, -7.5
| -0.0, 0, -7.5, -7.5, -0.0, -0.0, 0, 0, -7.5, -7.5, 0, -0.0, 0, 0, -7.5, -7.5, 0, 0, 0, 0, 0, 0, 0, -15.0, -0.0, 0, -7.5, -7.5, -0.0, -0.0, 0, 0, -7.5, -7.5, 0
| -7.5, -7.5, 0, -0.0, -0.0, -0.0, -7.5, -7.5, 0, 0, 0, -0.0, -7.5, -7.5, 0, 0, 0, 0, 0, 0, 0, 0, 0, -15.0, -7.5, -7.5, 0, -15.0, -0.0, -0.0, -7.5, -7.5, 0, 0, 0
| -7.5, -7.5, -0.0, 0, -0.0, -0.0, -7.5, -7.5, 0, 0, 0, -0.0, -7.5, -7.5, 0, 0, 0, 0, 0, 0, 0, 0, 0, -15.0, -7.5, -7.5, -0.0, 0, -0.0, -0.0, -7.5, -7.5, 0, 0, 0
| -7.5, -0.0, -0.0, -0.0, 0, -0.0, -7.5, 0, 0, 0, 0, -0.0, -7.5, 0, 0, 0, 0, 0, 0, 0, 0, 0, 0, -15.0, -7.5, -0.0, -0.0, -15.0, 0, -0.0, -7.5, 0, 0, 0, 0
| 0, 0, 0, 0, 0, 0, 0, 0, 0, 0, 0, 0, 0, 0, 0, 0, 0, -15.0, -15.0, -15.0, -15.0, -15.0, -15.0, 0, 0, 0, 0, 0, 0, 0, 0, 0, 0, 0, 0
| 0, -0.0, -7.5, -7.5, -7.5, -0.0, 0, 0, -7.5, -7.5, -7.5, -0.0, 0, 0, -7.5, -7.5, -7.5, -15.0, 0, -0.0, -7.5, -7.5, -7.5, 0, 0, 0, 0, 0, 0, -0.0, 0, 0, -7.5, -7.5, -7.5
| -0.0, 0, -7.5, -7.5, -0.0, -0.0, 0, 0, -7.5, -7.5, 0, -0.0, 0, 0, -7.5, -7.5, 0, -15.0, -0.0, 0, -7.5, -7.5, -0.0, 0, 0, 0, 0, 0, 0, -0.0, 0, 0, -7.5, -7.5, 0
| -7.5, -7.5, 0, -0.0, -0.0, -0.0, -7.5, -7.5, 0, 0, 0, -0.0, -7.5, -7.5, 0, 0, 0, -15.0, -7.5, -7.5, 0, -0.0, -0.0, 0, 0, 0, 0, 0, 0, -0.0, -7.5, -7.5, 0, 0, 0
| -7.5, -7.5, -0.0, 0, -0.0, -0.0, -7.5, -7.5, 0, 0, 0, -0.0, -7.5, -7.5, 0, 0, 0, -15.0, -7.5, -7.5, -15.0, 0, -0.0, 0, 0, 0, 0, 0, 0, -0.0, -7.5, -7.5, 0, 0, 0
| -7.5, -0.0, -0.0, -0.0, 0, -0.0, -7.5, 0, 0, 0, 0, -0.0, -7.5, 0, 0, 0, 0, -15.0, -7.5, -0.0, -15.0, -0.0, 0, 0, 0, 0, 0, 0, 0, -0.0, -7.5, 0, 0, 0, 0
| 0, 0, 0, 0, 0, -15.0, -15.0, -15.0, -15.0, -15.0, -15.0, 0, 0, 0, 0, 0, 0, 0, 0, 0, 0, 0, 0, 0, 0, 0, 0, 0, 0, 0, 0, 0, 0, 0, 0
| 0, -0.0, -7.5, -7.5, -7.5, -15.0, 0, -0.0, -7.5, -7.5, -7.5, -0.0, 0, 0, -7.5, -7.5, -7.5, -0.0, 0, 0, -7.5, -7.5, -7.5, -0.0, 0, 0, -7.5, -7.5, -7.5, 0, 0, 0, 0, 0, 0
| -0.0, 0, -7.5, -7.5, -0.0, -15.0, -15.0, 0, -7.5, -7.5, -0.0, -0.0, 0, 0, -7.5, -7.5, 0, -0.0, 0, 0, -7.5, -7.5, 0, -0.0, 0, 0, -7.5, -7.5, 0, 0, 0, 0, 0, 0, 0
| -7.5, -7.5, 0, -0.0, -0.0, -15.0, -7.5, -7.5, 0, -0.0, -0.0, -0.0, -7.5, -7.5, 0, 0, 0, -0.0, -7.5, -7.5, 0, 0, 0, -0.0, -7.5, -7.5, 0, 0, 0, 0, 0, 0, 0, 0, 0
| -7.5, -7.5, -0.0, 0, -0.0, -15.0, -7.5, -7.5, -0.0, 0, -0.0, -0.0, -7.5, -7.5, 0, 0, 0, -0.0, -7.5, -7.5, 0, 0, 0, -0.0, -7.5, -7.5, 0, 0, 0, 0, 0, 0, 0, 0, 0
| -7.5, -0.0, -0.0, -0.0, 0, -15.0, -7.5, -0.0, -0.0, -0.0, 0, -0.0, -7.5, 0, 0, 0, 0, -0.0, -7.5, 0, 0, 0, 0, -0.0, -7.5, 0, 0, 0, 0, 0, 0, 0, 0, 0, 0 |];
adjacent = [| 0, 1, 1, 1, 1, 1, 0, 1, 1, 1, 1, 1, 0, 1, 1, 1, 1, 1, 0, 1, 1, 1, 1, 1, 0, 1, 1, 1, 1, 1, 0, 1, 1, 1, 1
| 1, 0, 1, 1, 1, 1, 1, 0, 1, 1, 1, 1, 1, 0, 1, 1, 1, 1, 1, 0, 1, 1, 1, 1, 1, 0, 1, 1, 1, 1, 1, 0, 1, 1, 1
| 1, 1, 0, 1, 1, 1, 1, 1, 0, 1, 1, 1, 1, 1, 0, 1, 1, 1, 1, 1, 0, 1, 1, 1, 1, 1, 0, 1, 1, 1, 1, 1, 0, 1, 1
| 1, 1, 1, 0, 1, 1, 1, 1, 1, 0, 1, 1, 1, 1, 1, 0, 1, 1, 1, 1, 1, 0, 1, 1, 1, 1, 1, 0, 1, 1, 1, 1, 1, 0, 1
| 1, 1, 1, 1, 0, 1, 1, 1, 1, 1, 0, 1, 1, 1, 1, 1, 0, 1, 1, 1, 1, 1, 0, 1, 1, 1, 1, 1, 0, 1, 1, 1, 1, 1, 0
| 1, 1, 1, 1, 1, 0, 0, 0, 0, 0, 0, 1, 1, 1, 1, 1, 1, 1, 1, 1, 1, 1, 1, 1, 1, 1, 1, 1, 1, 1, 1, 1, 1, 1, 1
| 0, 1, 1, 1, 1, 0, 0, 0, 0, 0, 0, 1, 0, 1, 1, 1, 1, 1, 0, 1, 1, 1, 1, 1, 0, 1, 1, 1, 1, 1, 0, 1, 1, 1, 1
| 1, 0, 1, 1, 1, 0, 0, 0, 0, 0, 0, 1, 1, 0, 1, 1, 1, 1, 1, 0, 1, 1, 1, 1, 1, 0, 1, 1, 1, 1, 1, 0, 1, 1, 1
| 1, 1, 0, 1, 1, 0, 0, 0, 0, 0, 0, 1, 1, 1, 0, 1, 1, 1, 1, 1, 0, 1, 1, 1, 1, 1, 0, 1, 1, 1, 1, 1, 0, 1, 1
| 1, 1, 1, 0, 1, 0, 0, 0, 0, 0, 0, 1, 1, 1, 1, 0, 1, 1, 1, 1, 1, 0, 1, 1, 1, 1, 1, 0, 1, 1, 1, 1, 1, 0, 1
| 1, 1, 1, 1, 0, 0, 0, 0, 0, 0, 0, 1, 1, 1, 1, 1, 0, 1, 1, 1, 1, 1, 0, 1, 1, 1, 1, 1, 0, 1, 1, 1, 1, 1, 0
| 1, 1, 1, 1, 1, 1, 1, 1, 1, 1, 1, 0, 0, 0, 0, 0, 0, 1, 1, 1, 1, 1, 1, 1, 1, 1, 1, 1, 1, 1, 1, 1, 1, 1, 1
| 0, 1, 1, 1, 1, 1, 0, 1, 1, 1, 1, 0, 0, 0, 0, 0, 0, 1, 0, 1, 1, 1, 1, 1, 0, 1, 1, 1, 1, 1, 0, 1, 1, 1, 1
| 1, 0, 1, 1, 1, 1, 1, 0, 1, 1, 1, 0, 0, 0, 0, 0, 0, 1, 1, 0, 1, 1, 1, 1, 1, 0, 1, 1, 1, 1, 1, 0, 1, 1, 1
| 1, 1, 0, 1, 1, 1, 1, 1, 0, 1, 1, 0, 0, 0, 0, 0, 0, 1, 1, 1, 0, 1, 1, 1, 1, 1, 0, 1, 1, 1, 1, 1, 0, 1, 1
| 1, 1, 1, 0, 1, 1, 1, 1, 1, 0, 1, 0, 0, 0, 0, 0, 0, 1, 1, 1, 1, 0, 1, 1, 1, 1, 1, 0, 1, 1, 1, 1, 1, 0, 1
| 1, 1, 1, 1, 0, 1, 1, 1, 1, 1, 0, 0, 0, 0, 0, 0, 0, 1, 1, 1, 1, 1, 0, 1, 1, 1, 1, 1, 0, 1, 1, 1, 1, 1, 0
| 1, 1, 1, 1, 1, 1, 1, 1, 1, 1, 1, 1, 1, 1, 1, 1, 1, 0, 0, 0, 0, 0, 0, 1, 1, 1, 1, 1, 1, 1, 1, 1, 1, 1, 1
| 0, 1, 1, 1, 1, 1, 0, 1, 1, 1, 1, 1, 0, 1, 1, 1, 1, 0, 0, 0, 0, 0, 0, 1, 0, 1, 1, 1, 1, 1, 0, 1, 1, 1, 1
| 1, 0, 1, 1, 1, 1, 1, 0, 1, 1, 1, 1, 1, 0, 1, 1, 1, 0, 0, 0, 0, 0, 0, 1, 1, 0, 1, 1, 1, 1, 1, 0, 1, 1, 1
| 1, 1, 0, 1, 1, 1, 1, 1, 0, 1, 1, 1, 1, 1, 0, 1, 1, 0, 0, 0, 0, 0, 0, 1, 1, 1, 0, 1, 1, 1, 1, 1, 0, 1, 1
| 1, 1, 1, 0, 1, 1, 1, 1, 1, 0, 1, 1, 1, 1, 1, 0, 1, 0, 0, 0, 0, 0, 0, 1, 1, 1, 1, 0, 1, 1, 1, 1, 1, 0, 1
| 1, 1, 1, 1, 0, 1, 1, 1, 1, 1, 0, 1, 1, 1, 1, 1, 0, 0, 0, 0, 0, 0, 0, 1, 1, 1, 1, 1, 0, 1, 1, 1, 1, 1, 0
| 1, 1, 1, 1, 1, 1, 1, 1, 1, 1, 1, 1, 1, 1, 1, 1, 1, 1, 1, 1, 1, 1, 1, 0, 0, 0, 0, 0, 0, 1, 1, 1, 1, 1, 1
| 0, 1, 1, 1, 1, 1, 0, 1, 1, 1, 1, 1, 0, 1, 1, 1, 1, 1, 0, 1, 1, 1, 1, 0, 0, 0, 0, 0, 0, 1, 0, 1, 1, 1, 1
| 1, 0, 1, 1, 1, 1, 1, 0, 1, 1, 1, 1, 1, 0, 1, 1, 1, 1, 1, 0, 1, 1, 1, 0, 0, 0, 0, 0, 0, 1, 1, 0, 1, 1, 1
| 1, 1, 0, 1, 1, 1, 1, 1, 0, 1, 1, 1, 1, 1, 0, 1, 1, 1, 1, 1, 0, 1, 1, 0, 0, 0, 0, 0, 0, 1, 1, 1, 0, 1, 1
| 1, 1, 1, 0, 1, 1, 1, 1, 1, 0, 1, 1, 1, 1, 1, 0, 1, 1, 1, 1, 1, 0, 1, 0, 0, 0, 0, 0, 0, 1, 1, 1, 1, 0, 1
| 1, 1, 1, 1, 0, 1, 1, 1, 1, 1, 0, 1, 1, 1, 1, 1, 0, 1, 1, 1, 1, 1, 0, 0, 0, 0, 0, 0, 0, 1, 1, 1, 1, 1, 0
| 1, 1, 1, 1, 1, 1, 1, 1, 1, 1, 1, 1, 1, 1, 1, 1, 1, 1, 1, 1, 1, 1, 1, 1, 1, 1, 1, 1, 1, 0, 0, 0, 0, 0, 0
| 0, 1, 1, 1, 1, 1, 0, 1, 1, 1, 1, 1, 0, 1, 1, 1, 1, 1, 0, 1, 1, 1, 1, 1, 0, 1, 1, 1, 1, 0, 0, 0, 0, 0, 0
| 1, 0, 1, 1, 1, 1, 1, 0, 1, 1, 1, 1, 1, 0, 1, 1, 1, 1, 1, 0, 1, 1, 1, 1, 1, 0, 1, 1, 1, 0, 0, 0, 0, 0, 0
| 1, 1, 0, 1, 1, 1, 1, 1, 0, 1, 1, 1, 1, 1, 0, 1, 1, 1, 1, 1, 0, 1, 1, 1, 1, 1, 0, 1, 1, 0, 0, 0, 0, 0, 0
| 1, 1, 1, 0, 1, 1, 1, 1, 1, 0, 1, 1, 1, 1, 1, 0, 1, 1, 1, 1, 1, 0, 1, 1, 1, 1, 1, 0, 1, 0, 0, 0, 0, 0, 0
| 1, 1, 1, 1, 0, 1, 1, 1, 1, 1, 0, 1, 1, 1, 1, 1, 0, 1, 1, 1, 1, 1, 0, 1, 1, 1, 1, 1, 0, 0, 0, 0, 0, 0, 0 |];
